(set-logic QF_S)
(declare-fun var0 () String)
(assert (RegexIn var0 (RegexConcat (RegexStar (RegexStar (Str2Reg "000"))) (RegexConcat (RegexUnion (RegexPlus (Str2Reg "1")) (RegexPlus (Str2Reg "222"))) (RegexConcat (RegexPlus (RegexStar (Str2Reg "3"))) (RegexConcat (RegexPlus (RegexUnion (Str2Reg "444") (Str2Reg "5"))) (RegexConcat (RegexPlus (RegexStar (Str2Reg "6"))) (RegexConcat (RegexStar (RegexStar (Str2Reg "77"))) (RegexConcat (RegexPlus (RegexStar (Str2Reg "888"))) (RegexConcat (RegexPlus (RegexPlus (Str2Reg "9"))) (RegexConcat (RegexStar (RegexUnion (Str2Reg "a") (Str2Reg "bb"))) (RegexConcat (RegexStar (RegexUnion (Str2Reg "c") (Str2Reg "dd"))) (RegexConcat (RegexStar (RegexPlus (Str2Reg "e"))) (RegexConcat (RegexPlus (RegexUnion (Str2Reg "f") (Str2Reg "g"))) (RegexConcat (RegexStar (RegexStar (Str2Reg "h"))) (RegexConcat (RegexUnion (RegexPlus (Str2Reg "iii")) (RegexPlus (Str2Reg "j"))) (RegexConcat (RegexStar (RegexStar (Str2Reg "kk"))) (RegexConcat (RegexPlus (RegexUnion (Str2Reg "l") (Str2Reg "m"))) (RegexConcat (RegexPlus (RegexUnion (Str2Reg "nn") (Str2Reg "o"))) (RegexConcat (RegexUnion (RegexUnion (Str2Reg "pp") (Str2Reg "qqq")) (RegexUnion (Str2Reg "rrr") (Str2Reg "sss"))) (RegexConcat (RegexStar (RegexUnion (Str2Reg "t") (Str2Reg "uu"))) (RegexConcat (RegexUnion (RegexPlus (Str2Reg "vvv")) (RegexPlus (Str2Reg "www"))) (RegexConcat (RegexPlus (RegexStar (Str2Reg "x"))) (RegexConcat (RegexUnion (RegexPlus (Str2Reg "y")) (RegexPlus (Str2Reg "zz"))) (RegexConcat (RegexPlus (RegexPlus (Str2Reg "AA"))) (RegexConcat (RegexStar (RegexUnion (Str2Reg "BB") (Str2Reg "C"))) (RegexConcat (RegexPlus (RegexUnion (Str2Reg "D") (Str2Reg "EE"))) (RegexConcat (RegexPlus (RegexUnion (Str2Reg "FF") (Str2Reg "GG"))) (RegexConcat (RegexUnion (RegexUnion (Str2Reg "HH") (Str2Reg "I")) (RegexUnion (Str2Reg "JJJ") (Str2Reg "KK"))) (RegexConcat (RegexPlus (RegexUnion (Str2Reg "LL") (Str2Reg "MM"))) (RegexPlus (RegexUnion (Str2Reg "NNN") (Str2Reg "OO")))))))))))))))))))))))))))))))))
(check-sat)